c FILE: i080-302

c SOURCE: From steinlib

c DESCRIPTION: Steinlib instance with 80 nodes and 120 edges.

p edge 80 120
e 1 7
e 1 14
e 1 28
e 1 43
e 1 59
e 2 10
e 2 40
e 2 42
e 2 55
e 2 62
e 2 68
e 2 80
e 3 59
e 3 71
e 4 8
e 4 46
e 5 28
e 5 36
e 5 41
e 6 54
e 7 27
e 7 38
e 7 51
e 7 63
e 7 70
e 9 51
e 10 44
e 11 29
e 11 51
e 11 57
e 12 13
e 12 38
e 12 52
e 13 24
e 13 38
e 13 48
e 13 78
e 14 16
e 14 25
e 14 52
e 14 58
e 14 75
e 15 35
e 15 66
e 16 30
e 17 35
e 17 61
e 18 35
e 18 46
e 19 27
e 19 68
e 20 64
e 21 36
e 21 65
e 21 73
e 21 80
e 22 44
e 22 51
e 22 60
e 23 29
e 24 53
e 24 62
e 25 54
e 25 65
e 26 31
e 26 60
e 27 32
e 27 78
e 28 49
e 28 74
e 30 77
e 31 51
e 31 79
e 32 79
e 33 63
e 33 70
e 33 73
e 34 35
e 34 43
e 34 56
e 34 60
e 35 38
e 35 72
e 37 51
e 37 73
e 37 80
e 38 40
e 38 42
e 39 63
e 39 69
e 40 53
e 41 56
e 41 71
e 41 79
e 44 50
e 44 55
e 44 64
e 44 78
e 45 47
e 45 51
e 47 77
e 48 49
e 50 53
e 51 52
e 51 53
e 51 72
e 51 77
e 55 69
e 56 59
e 56 75
e 57 68
e 58 69
e 58 79
e 60 66
e 62 68
e 63 67
e 64 65
e 64 70
e 67 76
e 76 78
